CPXPARAM_Read_DataCheck                          1
Found incumbent of value 0.000000 after 0.00 sec. (0.52 ticks)
Tried aggregator 1 time.
MIP Presolve modified 8 coefficients.
Reduced MIP has 2031 rows, 20010 columns, and 100040 nonzeros.
Reduced MIP has 20010 binaries, 0 generals, 0 SOSs, and 0 indicators.
Presolve time = 0.05 sec. (35.83 ticks)
Tried aggregator 1 time.
Reduced MIP has 2031 rows, 20010 columns, and 100040 nonzeros.
Reduced MIP has 20010 binaries, 0 generals, 0 SOSs, and 0 indicators.
Presolve time = 0.06 sec. (40.91 ticks)
Probing time = 0.01 sec. (6.07 ticks)
Clique table members: 39497.
MIP emphasis: balance optimality and feasibility.
MIP search method: dynamic search.
Parallel mode: deterministic, using up to 4 threads.
Root relaxation solution time = 0.20 sec. (283.05 ticks)

        Nodes                                         Cuts/
   Node  Left     Objective  IInf  Best Integer    Best Bound    ItCnt     Gap

*     0+    0                            0.0000   124372.0000              --- 
      0     0    62982.0979    14        0.0000    62982.0979       19     --- 
*     0+    0                        37848.0000    62982.0979            66.41%
      0     0        cutoff          37848.0000    37848.0000     5836    0.00%
Elapsed time = 5.61 sec. (3972.77 ticks, tree = 0.01 MB, solutions = 2)

Clique cuts applied:  588
Mixed integer rounding cuts applied:  13
Gomory fractional cuts applied:  6

Root node processing (before b&c):
  Real time             =    5.63 sec. (3974.12 ticks)
Parallel b&c, 4 threads:
  Real time             =    0.00 sec. (0.00 ticks)
  Sync time (average)   =    0.00 sec.
  Wait time (average)   =    0.00 sec.
                          ------------
Total (root+branch&cut) =    5.63 sec. (3974.12 ticks)
